p cnf 240 1034
1 2 3 0
4 5 6 0
7 8 9 0
10 11 12 0
13 14 15 0
16 17 18 0
19 20 21 0
22 23 24 0
25 26 27 0
28 29 30 0
31 32 33 0
34 35 36 0
37 38 39 0
40 41 42 0
43 44 45 0
46 47 48 0
49 50 51 0
52 53 54 0
55 56 57 0
58 59 60 0
61 62 63 0
64 65 66 0
67 68 69 0
70 71 72 0
73 74 75 0
76 77 78 0
79 80 81 0
82 83 84 0
85 86 87 0
88 89 90 0
91 92 93 0
94 95 96 0
97 98 99 0
100 101 102 0
103 104 105 0
106 107 108 0
109 110 111 0
112 113 114 0
115 116 117 0
118 119 120 0
121 122 123 0
124 125 126 0
127 128 129 0
130 131 132 0
133 134 135 0
136 137 138 0
139 140 141 0
142 143 144 0
145 146 147 0
148 149 150 0
151 152 153 0
154 155 156 0
157 158 159 0
160 161 162 0
163 164 165 0
166 167 168 0
169 170 171 0
172 173 174 0
175 176 177 0
178 179 180 0
181 182 183 0
184 185 186 0
187 188 189 0
190 191 192 0
193 194 195 0
196 197 198 0
199 200 201 0
202 203 204 0
205 206 207 0
208 209 210 0
211 212 213 0
214 215 216 0
217 218 219 0
220 221 222 0
223 224 225 0
226 227 228 0
229 230 231 0
232 233 234 0
235 236 237 0
238 239 240 0
-1 -2 0
-1 -3 0
-2 -3 0
-4 -5 0
-4 -6 0
-5 -6 0
-7 -8 0
-7 -9 0
-8 -9 0
-10 -11 0
-10 -12 0
-11 -12 0
-13 -14 0
-13 -15 0
-14 -15 0
-16 -17 0
-16 -18 0
-17 -18 0
-19 -20 0
-19 -21 0
-20 -21 0
-22 -23 0
-22 -24 0
-23 -24 0
-25 -26 0
-25 -27 0
-26 -27 0
-28 -29 0
-28 -30 0
-29 -30 0
-31 -32 0
-31 -33 0
-32 -33 0
-34 -35 0
-34 -36 0
-35 -36 0
-37 -38 0
-37 -39 0
-38 -39 0
-40 -41 0
-40 -42 0
-41 -42 0
-43 -44 0
-43 -45 0
-44 -45 0
-46 -47 0
-46 -48 0
-47 -48 0
-49 -50 0
-49 -51 0
-50 -51 0
-52 -53 0
-52 -54 0
-53 -54 0
-55 -56 0
-55 -57 0
-56 -57 0
-58 -59 0
-58 -60 0
-59 -60 0
-61 -62 0
-61 -63 0
-62 -63 0
-64 -65 0
-64 -66 0
-65 -66 0
-67 -68 0
-67 -69 0
-68 -69 0
-70 -71 0
-70 -72 0
-71 -72 0
-73 -74 0
-73 -75 0
-74 -75 0
-76 -77 0
-76 -78 0
-77 -78 0
-79 -80 0
-79 -81 0
-80 -81 0
-82 -83 0
-82 -84 0
-83 -84 0
-85 -86 0
-85 -87 0
-86 -87 0
-88 -89 0
-88 -90 0
-89 -90 0
-91 -92 0
-91 -93 0
-92 -93 0
-94 -95 0
-94 -96 0
-95 -96 0
-97 -98 0
-97 -99 0
-98 -99 0
-100 -101 0
-100 -102 0
-101 -102 0
-103 -104 0
-103 -105 0
-104 -105 0
-106 -107 0
-106 -108 0
-107 -108 0
-109 -110 0
-109 -111 0
-110 -111 0
-112 -113 0
-112 -114 0
-113 -114 0
-115 -116 0
-115 -117 0
-116 -117 0
-118 -119 0
-118 -120 0
-119 -120 0
-121 -122 0
-121 -123 0
-122 -123 0
-124 -125 0
-124 -126 0
-125 -126 0
-127 -128 0
-127 -129 0
-128 -129 0
-130 -131 0
-130 -132 0
-131 -132 0
-133 -134 0
-133 -135 0
-134 -135 0
-136 -137 0
-136 -138 0
-137 -138 0
-139 -140 0
-139 -141 0
-140 -141 0
-142 -143 0
-142 -144 0
-143 -144 0
-145 -146 0
-145 -147 0
-146 -147 0
-148 -149 0
-148 -150 0
-149 -150 0
-151 -152 0
-151 -153 0
-152 -153 0
-154 -155 0
-154 -156 0
-155 -156 0
-157 -158 0
-157 -159 0
-158 -159 0
-160 -161 0
-160 -162 0
-161 -162 0
-163 -164 0
-163 -165 0
-164 -165 0
-166 -167 0
-166 -168 0
-167 -168 0
-169 -170 0
-169 -171 0
-170 -171 0
-172 -173 0
-172 -174 0
-173 -174 0
-175 -176 0
-175 -177 0
-176 -177 0
-178 -179 0
-178 -180 0
-179 -180 0
-181 -182 0
-181 -183 0
-182 -183 0
-184 -185 0
-184 -186 0
-185 -186 0
-187 -188 0
-187 -189 0
-188 -189 0
-190 -191 0
-190 -192 0
-191 -192 0
-193 -194 0
-193 -195 0
-194 -195 0
-196 -197 0
-196 -198 0
-197 -198 0
-199 -200 0
-199 -201 0
-200 -201 0
-202 -203 0
-202 -204 0
-203 -204 0
-205 -206 0
-205 -207 0
-206 -207 0
-208 -209 0
-208 -210 0
-209 -210 0
-211 -212 0
-211 -213 0
-212 -213 0
-214 -215 0
-214 -216 0
-215 -216 0
-217 -218 0
-217 -219 0
-218 -219 0
-220 -221 0
-220 -222 0
-221 -222 0
-223 -224 0
-223 -225 0
-224 -225 0
-226 -227 0
-226 -228 0
-227 -228 0
-229 -230 0
-229 -231 0
-230 -231 0
-232 -233 0
-232 -234 0
-233 -234 0
-235 -236 0
-235 -237 0
-236 -237 0
-238 -239 0
-238 -240 0
-239 -240 0
-1 -34 0
-1 -70 0
-1 -172 0
-4 -13 0
-4 -61 0
-4 -97 0
-7 -58 0
-7 -151 0
-7 -235 0
-10 -109 0
-10 -112 0
-10 -151 0
-13 -4 0
-13 -34 0
-13 -124 0
-16 -28 0
-16 -163 0
-16 -178 0
-19 -100 0
-19 -115 0
-19 -220 0
-22 -109 0
-22 -112 0
-22 -118 0
-25 -76 0
-25 -193 0
-25 -238 0
-28 -16 0
-28 -175 0
-28 -184 0
-31 -49 0
-31 -151 0
-31 -175 0
-34 -1 0
-34 -13 0
-34 -184 0
-37 -112 0
-37 -187 0
-37 -217 0
-40 -58 0
-40 -85 0
-40 -235 0
-43 -139 0
-43 -217 0
-43 -223 0
-46 -136 0
-46 -157 0
-46 -220 0
-49 -31 0
-49 -124 0
-49 -190 0
-52 -124 0
-52 -145 0
-52 -226 0
-55 -61 0
-55 -184 0
-55 -202 0
-58 -7 0
-58 -40 0
-58 -106 0
-61 -4 0
-61 -55 0
-61 -217 0
-64 -91 0
-64 -130 0
-64 -148 0
-67 -70 0
-67 -82 0
-67 -226 0
-70 -1 0
-70 -67 0
-70 -130 0
-73 -79 0
-73 -148 0
-73 -157 0
-76 -25 0
-76 -109 0
-76 -235 0
-79 -73 0
-79 -142 0
-79 -214 0
-82 -67 0
-82 -163 0
-82 -226 0
-85 -40 0
-85 -100 0
-85 -157 0
-88 -121 0
-88 -139 0
-88 -163 0
-91 -64 0
-91 -196 0
-91 -220 0
-94 -106 0
-94 -178 0
-94 -208 0
-97 -4 0
-97 -172 0
-97 -193 0
-100 -19 0
-100 -85 0
-100 -154 0
-103 -133 0
-103 -187 0
-103 -214 0
-106 -58 0
-106 -94 0
-106 -133 0
-109 -10 0
-109 -22 0
-109 -76 0
-112 -10 0
-112 -22 0
-112 -37 0
-115 -19 0
-115 -181 0
-115 -208 0
-118 -22 0
-118 -130 0
-118 -166 0
-121 -88 0
-121 -136 0
-121 -187 0
-124 -13 0
-124 -49 0
-124 -52 0
-127 -133 0
-127 -178 0
-127 -199 0
-130 -64 0
-130 -70 0
-130 -118 0
-133 -103 0
-133 -106 0
-133 -127 0
-136 -46 0
-136 -121 0
-136 -145 0
-139 -43 0
-139 -88 0
-139 -238 0
-142 -79 0
-142 -160 0
-142 -172 0
-145 -52 0
-145 -136 0
-145 -205 0
-148 -64 0
-148 -73 0
-148 -196 0
-151 -7 0
-151 -10 0
-151 -31 0
-154 -100 0
-154 -181 0
-154 -208 0
-157 -46 0
-157 -73 0
-157 -85 0
-160 -142 0
-160 -169 0
-160 -223 0
-163 -16 0
-163 -82 0
-163 -88 0
-166 -118 0
-166 -193 0
-166 -211 0
-169 -160 0
-169 -175 0
-169 -232 0
-172 -1 0
-172 -97 0
-172 -142 0
-175 -28 0
-175 -31 0
-175 -169 0
-178 -16 0
-178 -94 0
-178 -127 0
-181 -115 0
-181 -154 0
-181 -199 0
-184 -28 0
-184 -34 0
-184 -55 0
-187 -37 0
-187 -103 0
-187 -121 0
-190 -49 0
-190 -205 0
-190 -232 0
-193 -25 0
-193 -97 0
-193 -166 0
-196 -91 0
-196 -148 0
-196 -211 0
-199 -127 0
-199 -181 0
-199 -229 0
-202 -55 0
-202 -214 0
-202 -223 0
-205 -145 0
-205 -190 0
-205 -232 0
-208 -94 0
-208 -115 0
-208 -154 0
-211 -166 0
-211 -196 0
-211 -238 0
-214 -79 0
-214 -103 0
-214 -202 0
-217 -37 0
-217 -43 0
-217 -61 0
-220 -19 0
-220 -46 0
-220 -91 0
-223 -43 0
-223 -160 0
-223 -202 0
-226 -52 0
-226 -67 0
-226 -82 0
-229 -199 0
-232 -169 0
-232 -190 0
-232 -205 0
-235 -7 0
-235 -40 0
-235 -76 0
-238 -25 0
-238 -139 0
-238 -211 0
-2 -35 0
-2 -71 0
-2 -173 0
-5 -14 0
-5 -62 0
-5 -98 0
-8 -59 0
-8 -152 0
-8 -236 0
-11 -110 0
-11 -113 0
-11 -152 0
-14 -5 0
-14 -35 0
-14 -125 0
-17 -29 0
-17 -164 0
-17 -179 0
-20 -101 0
-20 -116 0
-20 -221 0
-23 -110 0
-23 -113 0
-23 -119 0
-26 -77 0
-26 -194 0
-26 -239 0
-29 -17 0
-29 -176 0
-29 -185 0
-32 -50 0
-32 -152 0
-32 -176 0
-35 -2 0
-35 -14 0
-35 -185 0
-38 -113 0
-38 -188 0
-38 -218 0
-41 -59 0
-41 -86 0
-41 -236 0
-44 -140 0
-44 -218 0
-44 -224 0
-47 -137 0
-47 -158 0
-47 -221 0
-50 -32 0
-50 -125 0
-50 -191 0
-53 -125 0
-53 -146 0
-53 -227 0
-56 -62 0
-56 -185 0
-56 -203 0
-59 -8 0
-59 -41 0
-59 -107 0
-62 -5 0
-62 -56 0
-62 -218 0
-65 -92 0
-65 -131 0
-65 -149 0
-68 -71 0
-68 -83 0
-68 -227 0
-71 -2 0
-71 -68 0
-71 -131 0
-74 -80 0
-74 -149 0
-74 -158 0
-77 -26 0
-77 -110 0
-77 -236 0
-80 -74 0
-80 -143 0
-80 -215 0
-83 -68 0
-83 -164 0
-83 -227 0
-86 -41 0
-86 -101 0
-86 -158 0
-89 -122 0
-89 -140 0
-89 -164 0
-92 -65 0
-92 -197 0
-92 -221 0
-95 -107 0
-95 -179 0
-95 -209 0
-98 -5 0
-98 -173 0
-98 -194 0
-101 -20 0
-101 -86 0
-101 -155 0
-104 -134 0
-104 -188 0
-104 -215 0
-107 -59 0
-107 -95 0
-107 -134 0
-110 -11 0
-110 -23 0
-110 -77 0
-113 -11 0
-113 -23 0
-113 -38 0
-116 -20 0
-116 -182 0
-116 -209 0
-119 -23 0
-119 -131 0
-119 -167 0
-122 -89 0
-122 -137 0
-122 -188 0
-125 -14 0
-125 -50 0
-125 -53 0
-128 -134 0
-128 -179 0
-128 -200 0
-131 -65 0
-131 -71 0
-131 -119 0
-134 -104 0
-134 -107 0
-134 -128 0
-137 -47 0
-137 -122 0
-137 -146 0
-140 -44 0
-140 -89 0
-140 -239 0
-143 -80 0
-143 -161 0
-143 -173 0
-146 -53 0
-146 -137 0
-146 -206 0
-149 -65 0
-149 -74 0
-149 -197 0
-152 -8 0
-152 -11 0
-152 -32 0
-155 -101 0
-155 -182 0
-155 -209 0
-158 -47 0
-158 -74 0
-158 -86 0
-161 -143 0
-161 -170 0
-161 -224 0
-164 -17 0
-164 -83 0
-164 -89 0
-167 -119 0
-167 -194 0
-167 -212 0
-170 -161 0
-170 -176 0
-170 -233 0
-173 -2 0
-173 -98 0
-173 -143 0
-176 -29 0
-176 -32 0
-176 -170 0
-179 -17 0
-179 -95 0
-179 -128 0
-182 -116 0
-182 -155 0
-182 -200 0
-185 -29 0
-185 -35 0
-185 -56 0
-188 -38 0
-188 -104 0
-188 -122 0
-191 -50 0
-191 -206 0
-191 -233 0
-194 -26 0
-194 -98 0
-194 -167 0
-197 -92 0
-197 -149 0
-197 -212 0
-200 -128 0
-200 -182 0
-200 -230 0
-203 -56 0
-203 -215 0
-203 -224 0
-206 -146 0
-206 -191 0
-206 -233 0
-209 -95 0
-209 -116 0
-209 -155 0
-212 -167 0
-212 -197 0
-212 -239 0
-215 -80 0
-215 -104 0
-215 -203 0
-218 -38 0
-218 -44 0
-218 -62 0
-221 -20 0
-221 -47 0
-221 -92 0
-224 -44 0
-224 -161 0
-224 -203 0
-227 -53 0
-227 -68 0
-227 -83 0
-230 -200 0
-233 -170 0
-233 -191 0
-233 -206 0
-236 -8 0
-236 -41 0
-236 -77 0
-239 -26 0
-239 -140 0
-239 -212 0
-3 -36 0
-3 -72 0
-3 -174 0
-6 -15 0
-6 -63 0
-6 -99 0
-9 -60 0
-9 -153 0
-9 -237 0
-12 -111 0
-12 -114 0
-12 -153 0
-15 -6 0
-15 -36 0
-15 -126 0
-18 -30 0
-18 -165 0
-18 -180 0
-21 -102 0
-21 -117 0
-21 -222 0
-24 -111 0
-24 -114 0
-24 -120 0
-27 -78 0
-27 -195 0
-27 -240 0
-30 -18 0
-30 -177 0
-30 -186 0
-33 -51 0
-33 -153 0
-33 -177 0
-36 -3 0
-36 -15 0
-36 -186 0
-39 -114 0
-39 -189 0
-39 -219 0
-42 -60 0
-42 -87 0
-42 -237 0
-45 -141 0
-45 -219 0
-45 -225 0
-48 -138 0
-48 -159 0
-48 -222 0
-51 -33 0
-51 -126 0
-51 -192 0
-54 -126 0
-54 -147 0
-54 -228 0
-57 -63 0
-57 -186 0
-57 -204 0
-60 -9 0
-60 -42 0
-60 -108 0
-63 -6 0
-63 -57 0
-63 -219 0
-66 -93 0
-66 -132 0
-66 -150 0
-69 -72 0
-69 -84 0
-69 -228 0
-72 -3 0
-72 -69 0
-72 -132 0
-75 -81 0
-75 -150 0
-75 -159 0
-78 -27 0
-78 -111 0
-78 -237 0
-81 -75 0
-81 -144 0
-81 -216 0
-84 -69 0
-84 -165 0
-84 -228 0
-87 -42 0
-87 -102 0
-87 -159 0
-90 -123 0
-90 -141 0
-90 -165 0
-93 -66 0
-93 -198 0
-93 -222 0
-96 -108 0
-96 -180 0
-96 -210 0
-99 -6 0
-99 -174 0
-99 -195 0
-102 -21 0
-102 -87 0
-102 -156 0
-105 -135 0
-105 -189 0
-105 -216 0
-108 -60 0
-108 -96 0
-108 -135 0
-111 -12 0
-111 -24 0
-111 -78 0
-114 -12 0
-114 -24 0
-114 -39 0
-117 -21 0
-117 -183 0
-117 -210 0
-120 -24 0
-120 -132 0
-120 -168 0
-123 -90 0
-123 -138 0
-123 -189 0
-126 -15 0
-126 -51 0
-126 -54 0
-129 -135 0
-129 -180 0
-129 -201 0
-132 -66 0
-132 -72 0
-132 -120 0
-135 -105 0
-135 -108 0
-135 -129 0
-138 -48 0
-138 -123 0
-138 -147 0
-141 -45 0
-141 -90 0
-141 -240 0
-144 -81 0
-144 -162 0
-144 -174 0
-147 -54 0
-147 -138 0
-147 -207 0
-150 -66 0
-150 -75 0
-150 -198 0
-153 -9 0
-153 -12 0
-153 -33 0
-156 -102 0
-156 -183 0
-156 -210 0
-159 -48 0
-159 -75 0
-159 -87 0
-162 -144 0
-162 -171 0
-162 -225 0
-165 -18 0
-165 -84 0
-165 -90 0
-168 -120 0
-168 -195 0
-168 -213 0
-171 -162 0
-171 -177 0
-171 -234 0
-174 -3 0
-174 -99 0
-174 -144 0
-177 -30 0
-177 -33 0
-177 -171 0
-180 -18 0
-180 -96 0
-180 -129 0
-183 -117 0
-183 -156 0
-183 -201 0
-186 -30 0
-186 -36 0
-186 -57 0
-189 -39 0
-189 -105 0
-189 -123 0
-192 -51 0
-192 -207 0
-192 -234 0
-195 -27 0
-195 -99 0
-195 -168 0
-198 -93 0
-198 -150 0
-198 -213 0
-201 -129 0
-201 -183 0
-201 -231 0
-204 -57 0
-204 -216 0
-204 -225 0
-207 -147 0
-207 -192 0
-207 -234 0
-210 -96 0
-210 -117 0
-210 -156 0
-213 -168 0
-213 -198 0
-213 -240 0
-216 -81 0
-216 -105 0
-216 -204 0
-219 -39 0
-219 -45 0
-219 -63 0
-222 -21 0
-222 -48 0
-222 -93 0
-225 -45 0
-225 -162 0
-225 -204 0
-228 -54 0
-228 -69 0
-228 -84 0
-231 -201 0
-234 -171 0
-234 -192 0
-234 -207 0
-237 -9 0
-237 -42 0
-237 -78 0
-240 -27 0
-240 -141 0
-240 -213 0
